p tw 42 48
1 2
2 13
3 4
4 5
5 6
6 7
7 8
7 19
8 9
9 10
9 17
10 11
11 12
12 14
13 24
14 15
15 16
16 17
16 19
17 18
18 19
19 20
20 21
21 35
22 23
23 25
24 35
25 26
25 33
26 27
27 28
28 29
29 30
30 31
31 32
31 33
32 33
33 34
34 36
35 38
36 37
38 39
39 40
39 22
40 41
41 42
42 3
42 22
